unknown
(model
; cardinality of BoundSet is 2
(declare-sort BoundSet 0)
; rep: @uc_BoundSet_0
; rep: @uc_BoundSet_1
(declare-sort UnboundSet 0)
(define-fun IsScreaming ((BOUND_VARIABLE_473 BoundSet)) Bool true)
(define-fun IsClutching ((BOUND_VARIABLE_473 BoundSet)) Bool true)
(define-fun IsUpset ((BOUND_VARIABLE_473 BoundSet)) Bool false)
(define-fun IsWalking ((BOUND_VARIABLE_473 BoundSet)) Bool false)
)
